AES/1_3_4/ssaes_r1-20_c3_rw1_e4_f0_k1-20_aes_min_box_aes_mc_bidirectional/ExperimentMinisat_r2_k18cnf_2011-10-29-154109/Result
WARNING: for repeatability, setting FPU to use double precision
============================[ Problem Statistics ]=============================
|                                                                             |
|  Number of variables:           148                                         |
|  Number of clauses:             512                                         |
|  Parse time:                   0.00 s                                       |
|  Eliminated clauses:           0.00 Mb                                      |
|  Simplification time:          0.00 s                                       |
|                                                                             |
=============================[ Search Statistics ]==============================
| Conflicts  |          ORIGINAL         |          LEARNT          | Progress |
|            |    Vars  Clauses Literals |    Limit  Clauses Lit/Cl |          |
================================================================================
===============================================================================
restarts              : 1
conflicts             : 74             (74074 /sec)
decisions             : 85             (0.00 % random) (85085 /sec)
propagations          : 2387           (2389389 /sec)
conflict literals     : 547            (30.41 % deleted)
Memory used           : 8.00 MB
CPU time              : 0.000999 s

SATISFIABLE
